HFSDDW
15	4	2
0	38	1	63
0	65	1	32
0	63	1	64
0	15	1	65
0	73	1	39
0	9	1	47
0	62	1	39
0	67	1	54
0	70	1	79
0	31	1	65
0	88	1	7
0	34	1	45
0	5	1	96
0	6	1	77
0	53	1	87
LBCmax: 435
RELDUE
-1	218	7	3
-1	131	1	8
-1	213	1	9
-1	392	4	1
-1	226	4	4
-1	279	3	3
-1	325	2	3
-1	173	7	6
-1	160	4	2
-1	376	8	1
-1	244	1	2
-1	295	6	1
-1	133	1	8
-1	161	5	7
-1	384	4	2
DDW
211	225
130	132
207	219
372	412
219	233
259	299
322	328
156	190
152	168
342	410
220	268
266	324
120	146
150	172
380	388
